(set-info :smt-lib-version 2.6)
(set-logic QF_S)
(set-info :source |
Generated by: Murphy Berzish, Mitja Kulczynski, Federico Mora, Florin Manea, Joel Day, Dirk Nowotka, Vijay Ganesh, Zhengyang Lu
Generated on: 2020-10-01
Description: Translated from a collection of real-world regex queries, AutomataArk, collected by Loris D’Antoni and Fang Wang: https://github.com/lorisdanto/automatark
Application: Evaluate solvers on real-world regex queries
Target solver: Z3str3RE, CVC4, OSTRICH, Z3seq, Z3str3, Z3-Trau
Publications: Berzish, M., Kulczynski, M., Mora, F., Manea, F., Day, J. D., Nowotka, D., & Ganesh, V. (2021, July). An SMT solver for regular expressions and linear arithmetic over string length. In CAV 2021.
|)
(set-info :license "https://creativecommons.org/licenses/by/4.0/")
(set-info :category "industrial")
(set-info :status unsat)

(declare-const X String)
(assert (str.in_re X (re.++ (str.to_re "/") ((_ re.loop 4 4) (re.union (str.to_re "\u{a}") (re.range " " "~") (str.to_re "\u{d}"))) (str.to_re "/P\u{a}"))))
(assert (str.in_re X (re.++ (str.to_re "User-Agent:") (re.* re.allchar) (str.to_re "User-Agent:") (re.* re.allchar) (str.to_re "spyblini.inidata.warezclient.com\u{a}"))))
(assert (not (str.in_re X (re.++ (str.to_re "href") (re.* (re.union (str.to_re " ") (str.to_re "\u{9}") (str.to_re "\u{a}") (str.to_re "\u{c}") (str.to_re "\u{d}"))) (str.to_re "=") (re.* (re.union (str.to_re " ") (str.to_re "\u{9}") (str.to_re "\u{a}") (str.to_re "\u{c}") (str.to_re "\u{d}"))) (str.to_re "\u{22}\u{22}\u{a}/i") (re.+ (str.to_re "/")) (re.* (re.++ (re.* (re.union (str.to_re "-") (str.to_re ".") (str.to_re ",") (str.to_re "@") (str.to_re "?") (str.to_re "^") (str.to_re "=") (str.to_re "%") (str.to_re "&") (str.to_re ":") (str.to_re "/") (str.to_re "~") (str.to_re "+") (str.to_re "#") (re.range "0" "9") (re.range "A" "Z") (re.range "a" "z") (str.to_re "_"))) (re.+ (re.union (str.to_re "-") (str.to_re "@") (str.to_re "?") (str.to_re "^") (str.to_re "=") (str.to_re "%") (str.to_re "&") (str.to_re "/") (str.to_re "~") (str.to_re "+") (str.to_re "#") (re.range "0" "9") (re.range "A" "Z") (re.range "a" "z") (str.to_re "_")))))))))
(assert (str.in_re X (re.union (str.to_re "A") (str.to_re "C") (str.to_re "D") (str.to_re "F") (str.to_re "H") (str.to_re "K") (str.to_re "L") (str.to_re "M") (str.to_re "O") (str.to_re "P\u{a}"))))
(assert (not (str.in_re X (re.++ (re.+ (re.++ ((_ re.loop 1 1) (re.range "1" "9")) ((_ re.loop 0 7) (re.range "0" "9")))) (re.+ (re.opt (re.++ (str.to_re ",") ((_ re.loop 1 1) (re.range "1" "9")) ((_ re.loop 0 7) (re.range "0" "9"))))) (str.to_re "\u{a}")))))
(check-sat)

(exit)
